pr8_2
0 58 119 134 145 102 138 79 111 28 55 47 133 40 68 39 114 33 45 127 106 107 30 15 109 13 43 27 118 108 56 9 115 31 14 74 54 148 124 126 42 11 1 81 90 6 69 88 117 19 41 57 91 129 105 63 99 65 100 94 72 75 110 84 122 92 93 131 67 38 50 113 82 144 73 130 140 61 51 29 77 48 97 46 141 5 53 7 60 103 116 135 25 83 22 76 80 49 128 59 64 70 10 8 139 24 137 95 21 66 147 17 125 23 123 132 120 18 2 16 52 71 44 98 89 12 78 34 62 85 32 146 87 121 142 136 36 35 26 112 143 37 96 20 149 104 86 5 101 0